 $SYSTEM MEMDDI=400 MWORDS=200 $END
 $CONTRL DFTTYP=B3LYP ICHARG=1 MULT=1 $END
 $ELPOT IEPOT=1 WHERE=PDC $END
 $PDC PTSEL=CONNOLLY CONSTR=NONE $END
 $BASIS GBASIS=N31 NGAUSS=6 NDFUNC=1 $END
 $DATA
Cluster/6-31G(d)
C1
H          1.0   -12.535    2.492   10.764
C          6.0   -12.569    1.499   11.213
H          1.0   -12.112    1.611   12.196
H          1.0   -13.583    1.121   11.344
C          6.0   -11.670    0.562   10.409
O          8.0   -11.474    0.764    9.204
N          7.0   -11.070   -0.411   11.090
H          1.0   -11.247   -0.508   12.081
C          6.0   -10.182   -1.384   10.459
H          1.0   -10.500   -1.569    9.432
C          6.0    -8.738   -0.869   10.443
H          1.0    -8.075   -1.578    9.947
H          1.0    -8.765    0.052    9.875
C          6.0    -8.217   -0.552   11.833
N          7.0    -8.407    0.675   12.316
H          1.0    -8.864    1.421   11.811
C          6.0    -7.926    0.778   13.583
H          1.0    -7.949    1.655   14.210
N          7.0    -7.409   -0.432   13.920
C          6.0    -7.572   -1.281   12.857
H          1.0    -7.293   -2.321   12.804
C          6.0   -10.268   -2.695   11.232
O          8.0   -10.977   -2.784   12.236
N          7.0    -9.551   -3.709   10.763
H          1.0    -8.974   -3.581    9.944
C          6.0    -9.567   -5.022   11.394
H          1.0   -10.098   -4.975   12.345
H          1.0   -10.056   -5.748   10.745
C          6.0    -8.148   -5.522   11.627
O          8.0    -7.187   -4.959   11.105
N          7.0    -8.044   -6.591   12.409
H          1.0    -8.884   -6.963   12.831
C          6.0    -6.790   -7.292   12.687
H          1.0    -6.023   -7.049   11.952
C          6.0    -6.286   -7.042   14.112
H          1.0    -7.032   -7.386   14.831
H          1.0    -5.376   -7.621   14.266
C          6.0    -6.006   -5.584   14.379
N          7.0    -4.755   -5.137   14.269
H          1.0    -3.955   -5.716   14.055
C          6.0    -4.707   -3.799   14.496
H          1.0    -3.816   -3.187   14.507
N          7.0    -5.970   -3.385   14.760
C          6.0    -6.799   -4.466   14.694
H          1.0    -7.869   -4.468   14.843
C          6.0    -7.254   -8.739   12.545
O          8.0    -8.341   -9.081   13.015
N          7.0    -6.489   -9.569   11.848
H          1.0    -5.609   -9.260   11.461
C          6.0    -6.893  -10.956   11.654
H          1.0    -7.498  -11.279   12.501
H          1.0    -7.503  -11.060   10.757
H          1.0    -6.032  -11.624   11.619
H          1.0   -12.514   -5.695   14.967
C          6.0   -12.775   -4.770   14.453
H          1.0   -12.146   -4.628   13.574
H          1.0   -13.814   -4.821   14.127
C          6.0   -12.593   -3.598   15.411
O          8.0   -13.017   -3.664   16.570
N          7.0   -11.975   -2.526   14.926
H          1.0   -11.648   -2.525   13.971
C          6.0   -11.752   -1.333   15.731
H          1.0   -12.185   -1.452   16.722
C          6.0   -10.256   -1.073   15.920
H          1.0    -9.787   -1.057   14.938
H          1.0   -10.107   -0.100   16.382
C          6.0    -9.583   -2.125   16.767
N          7.0    -8.260   -2.236   16.697
C          6.0    -7.823   -3.265   17.474
H          1.0    -6.844   -3.336   17.841
N          7.0    -8.907   -3.822   18.053
H          1.0    -8.882   -4.529   18.770
C          6.0   -10.017   -3.140   17.643
H          1.0   -11.031   -3.327   17.953
C          6.0   -12.373   -0.113   15.086
O          8.0   -12.005    0.257   13.960
N          7.0   -13.341    0.484   15.775
H          1.0   -13.622    0.114   16.672
C          6.0   -13.990    1.695   15.293
H          1.0   -13.804    1.842   14.229
H          1.0   -15.069    1.643   15.442
H          1.0   -13.531    2.511   15.851
Zn        30.0    -6.666   -1.692   15.446
C          6.0    -5.267    2.011   15.709
C          6.0    -4.551    1.523   14.598
C          6.0    -4.085    2.433   13.654
C          6.0    -4.327    3.804   13.810
C          6.0    -5.037    4.365   14.897
C          6.0    -5.294    5.766   15.074
C          6.0    -6.016    6.186   16.207
C          6.0    -6.491    5.276   17.166
C          6.0    -6.233    3.905   16.983
C          6.0    -5.513    3.424   15.865
N          7.0    -4.782    6.764   14.034
C          6.0    -3.576    6.860   14.110
C          6.0    -5.469    6.622   12.900
S         16.0    -5.860    0.929   16.897
O          8.0    -7.349    1.047   16.967
O          8.0    -5.251    1.273   18.220
N          7.0    -5.486   -0.470   16.524
H          1.0    -5.040   -0.618   15.804
H          1.0    -5.355    5.720   12.563
H          1.0    -6.410    6.787   13.069
H          1.0    -5.143    7.256   12.242
H          1.0    -3.331    7.169   14.996
H          1.0    -3.171    5.994   13.947
H          1.0    -3.259    7.494   13.448
H          1.0    -6.558    3.272   17.642
H          1.0    -6.987    5.587   17.939
H          1.0    -6.191    7.132   16.329
H          1.0    -3.986    4.406   13.130
H          1.0    -3.589    2.116   12.883
H          1.0    -4.386    0.573   14.493
 $END
